<?xml version="1.0" encoding="UTF-8"?><osil xmlns="os.optimizationservices.org"   xmlns:xsi="http://www.w3.org/2001/XMLSchema-instance" xsi:schemaLocation="os.optimizationservices.org http://www.optimizationservices.org/schemas/2.0/OSiL.xsd" ><instanceHeader><name>q_20_10_25_5</name></instanceHeader><instanceData><variables numberOfVariables="20"><var name="x1" ub="1"/><var name="x2" ub="1"/><var name="x3" ub="1"/><var name="x4" ub="1"/><var name="x5" ub="1"/><var name="x6" ub="1"/><var name="x7" ub="1"/><var name="x8" ub="1"/><var name="x9" ub="1"/><var name="x10" ub="1"/><var name="x11" ub="1"/><var name="x12" ub="1"/><var name="x13" ub="1"/><var name="x14" ub="1"/><var name="x15" ub="1"/><var name="x16" ub="1"/><var name="x17" ub="1"/><var name="x18" ub="1"/><var name="x19" ub="1"/><var name="x20" ub="1"/></variables><objectives numberOfObjectives="1"><obj maxOrMin="min" name="defObj_x21" numberOfObjCoef="20"><coef idx="0">8.04e-2</coef><coef idx="1">.44</coef><coef idx="2">-6.8e-3</coef><coef idx="3">.5275</coef><coef idx="4">-.1504</coef><coef idx="5">-.7599</coef><coef idx="6">-.956</coef><coef idx="7">-.5055</coef><coef idx="8">.4932</coef><coef idx="9">-.6198</coef><coef idx="10">.8397</coef><coef idx="11">.5619</coef><coef idx="12">.2587</coef><coef idx="13">7.07e-2</coef><coef idx="14">-.5017</coef><coef idx="15">.3081</coef><coef idx="16">.5406</coef><coef idx="17">-1.1e-2</coef><coef idx="18">-.2122</coef><coef idx="19">-.9628</coef></obj></objectives><constraints numberOfConstraints="10"><con name="e2" ub="59.343"/><con name="e3" ub="7.777"/><con name="e4" ub="14.151"/><con name="e5" ub="39.414"/><con name="e6" ub="35.266"/><con name="e7" ub="93.927"/><con name="e8" ub="20.571"/><con name="e9" ub="68.825"/><con name="e10" ub="82.708"/><con name="e11" ub="4.289"/></constraints><linearConstraintCoefficients numberOfValues="200"><start><el mult="11" incr="20">0</el></start><colIdx><el mult="20" incr="1">0</el><el mult="20" incr="1">0</el><el mult="20" incr="1">0</el><el mult="20" incr="1">0</el><el mult="20" incr="1">0</el><el mult="20" incr="1">0</el><el mult="20" incr="1">0</el><el mult="20" incr="1">0</el><el mult="20" incr="1">0</el><el mult="20" incr="1">0</el></colIdx><value><el>-.6474</el><el>.5031</el><el>-.4546</el><el>-.3308</el><el>.4766</el><el>.6998</el><el>.718</el><el>.3503</el><el>1.6e-2</el><el>.4784</el><el>.7638</el><el>-.1308</el><el>-.7673</el><el>-.2202</el><el>-.887</el><el>-.5057</el><el>.8278</el><el>.2213</el><el>.5807</el><el>-.7942</el><el>-.7607</el><el>-.405</el><el>-.6118</el><el>-.1667</el><el>.1477</el><el>-.9953</el><el>.1259</el><el>-.2898</el><el>.9835</el><el>.2219</el><el>5.96e-2</el><el>.1117</el><el>-.9616</el><el>-.2415</el><el>-.8058</el><el>.4304</el><el>-.5957</el><el>-.6492</el><el>-.4174</el><el>-3.11e-2</el><el>.9665</el><el>.6906</el><el>.6894</el><el>.8888</el><el>.2372</el><el>-.7214</el><el>-.9545</el><el>.6715</el><el>-.7998</el><el>.3737</el><el>-.942</el><el>-.6484</el><el>.2972</el><el>-.3784</el><el>.1748</el><el>.1615</el><el>.2617</el><el>.6824</el><el>-.5361</el><el>-.4085</el><el>5.7e-2</el><el>-.4883</el><el>-.1082</el><el>-.9031</el><el>.9641</el><el>-.399</el><el>8.65e-2</el><el>.7788</el><el>.9216</el><el>-4.02e-2</el><el>-.3549</el><el>.4937</el><el>-.4121</el><el>.9414</el><el>-.952</el><el>.7266</el><el>-.7575</el><el>5.8e-2</el><el>.9067</el><el>-7.06e-2</el><el>.699</el><el>.5983</el><el>.9217</el><el>.3898</el><el>.1108</el><el>-.1213</el><el>.1705</el><el>-.2378</el><el>.887</el><el>.5003</el><el>.5925</el><el>-.1486</el><el>-.8145</el><el>.9327</el><el>-.5991</el><el>-.7058</el><el>.2455</el><el>.5071</el><el>.8182</el><el>.9732</el><el>.6923</el><el>-.6987</el><el>-.3324</el><el>.2958</el><el>.3663</el><el>-.6154</el><el>.6713</el><el>-.9334</el><el>-.8831</el><el>-.2644</el><el>-.2765</el><el>.3136</el><el>-.8821</el><el>-.6316</el><el>.6725</el><el>.7384</el><el>-.861</el><el>.524</el><el>-.8582</el><el>.1261</el><el>.8314</el><el>-.335</el><el>.3849</el><el>-.3336</el><el>.8185</el><el>-.8094</el><el>.2047</el><el>.7624</el><el>-.433</el><el>-.8134</el><el>.4257</el><el>-.7769</el><el>.1038</el><el>-.8538</el><el>-.944</el><el>.4471</el><el>-.3114</el><el>.9872</el><el>.5662</el><el>-.8601</el><el>.1188</el><el>-.9886</el><el>-.9313</el><el>.1185</el><el>.6724</el><el>-3.56e-2</el><el>-.1857</el><el>.2757</el><el>-.8058</el><el>.4015</el><el>.5596</el><el>-1.06e-2</el><el>.536</el><el>.5357</el><el>.8335</el><el>-.4088</el><el>.1983</el><el>-.9789</el><el>-.8035</el><el>-.2847</el><el>2.16e-2</el><el>.2394</el><el>-.6084</el><el>.7107</el><el>-.1625</el><el>-.5571</el><el>-.7767</el><el>3.68e-2</el><el>.4462</el><el>.3917</el><el>.4032</el><el>-.5984</el><el>.3506</el><el>-.7297</el><el>-.7041</el><el>-.5038</el><el>.7927</el><el>.3196</el><el>-.4161</el><el>.4817</el><el>.1074</el><el>.3319</el><el>.5873</el><el>-.6974</el><el>-.409</el><el>.7691</el><el>.1721</el><el>.4355</el><el>-.6468</el><el>-.803</el><el>-.2987</el><el>-1.41e-2</el><el>-.9192</el><el>1.79e-2</el><el>-.6329</el><el>.7607</el><el>-.5257</el><el>-.4387</el><el>.5897</el><el>.125</el></value></linearConstraintCoefficients><quadraticCoefficients  numberOfQuadraticTerms="572" ><qTerm  idx="-1"  idxOne="0"  idxTwo="2"  coef="1.0579"/><qTerm  idx="-1"  idxOne="0"  idxTwo="9"  coef="-1.8103"/><qTerm  idx="-1"  idxOne="1"  idxTwo="2"  coef="-.2905"/><qTerm  idx="-1"  idxOne="1"  idxTwo="6"  coef="-.7942"/><qTerm  idx="-1"  idxOne="1"  idxTwo="7"  coef="1.1008"/><qTerm  idx="-1"  idxOne="1"  idxTwo="13"  coef=".2205"/><qTerm  idx="-1"  idxOne="1"  idxTwo="15"  coef="1.2474"/><qTerm  idx="-1"  idxOne="1"  idxTwo="16"  coef="-1.4528"/><qTerm  idx="-1"  idxOne="1"  idxTwo="18"  coef="1.0565"/><qTerm  idx="-1"  idxOne="2"  idxTwo="4"  coef="-1.1258"/><qTerm  idx="-1"  idxOne="2"  idxTwo="5"  coef="-.687"/><qTerm  idx="-1"  idxOne="2"  idxTwo="6"  coef="-.5574"/><qTerm  idx="-1"  idxOne="2"  idxTwo="7"  coef="-1.534"/><qTerm  idx="-1"  idxOne="2"  idxTwo="9"  coef="-.1403"/><qTerm  idx="-1"  idxOne="2"  idxTwo="10"  coef=".5111"/><qTerm  idx="-1"  idxOne="2"  idxTwo="15"  coef="-1.8542"/><qTerm  idx="-1"  idxOne="2"  idxTwo="19"  coef="-1.5427"/><qTerm  idx="-1"  idxOne="3"  idxTwo="7"  coef="1.8817"/><qTerm  idx="-1"  idxOne="3"  idxTwo="11"  coef="1.4882"/><qTerm  idx="-1"  idxOne="3"  idxTwo="18"  coef="-.7014"/><qTerm  idx="-1"  idxOne="4"  idxTwo="4"  coef=".9101"/><qTerm  idx="-1"  idxOne="4"  idxTwo="8"  coef="-.2663"/><qTerm  idx="-1"  idxOne="5"  idxTwo="5"  coef=".5498"/><qTerm  idx="-1"  idxOne="5"  idxTwo="6"  coef="-1.935"/><qTerm  idx="-1"  idxOne="5"  idxTwo="14"  coef=".8073"/><qTerm  idx="-1"  idxOne="6"  idxTwo="8"  coef="8.1e-3"/><qTerm  idx="-1"  idxOne="6"  idxTwo="12"  coef="-1.5574"/><qTerm  idx="-1"  idxOne="6"  idxTwo="13"  coef="3.25e-2"/><qTerm  idx="-1"  idxOne="7"  idxTwo="9"  coef="-1.9029"/><qTerm  idx="-1"  idxOne="7"  idxTwo="12"  coef="-.5937"/><qTerm  idx="-1"  idxOne="7"  idxTwo="14"  coef=".5756"/><qTerm  idx="-1"  idxOne="7"  idxTwo="18"  coef="-1.8128"/><qTerm  idx="-1"  idxOne="8"  idxTwo="17"  coef="1.126"/><qTerm  idx="-1"  idxOne="9"  idxTwo="12"  coef="-1.3656"/><qTerm  idx="-1"  idxOne="9"  idxTwo="13"  coef=".8443"/><qTerm  idx="-1"  idxOne="9"  idxTwo="17"  coef=".8181"/><qTerm  idx="-1"  idxOne="10"  idxTwo="13"  coef=".6267"/><qTerm  idx="-1"  idxOne="10"  idxTwo="14"  coef=".4553"/><qTerm  idx="-1"  idxOne="11"  idxTwo="16"  coef=".7466"/><qTerm  idx="-1"  idxOne="11"  idxTwo="17"  coef="-.8833"/><qTerm  idx="-1"  idxOne="12"  idxTwo="17"  coef=".3741"/><qTerm  idx="-1"  idxOne="13"  idxTwo="16"  coef="1.7586"/><qTerm  idx="-1"  idxOne="13"  idxTwo="19"  coef="-1.2737"/><qTerm  idx="-1"  idxOne="14"  idxTwo="15"  coef=".965"/><qTerm  idx="-1"  idxOne="14"  idxTwo="17"  coef="1.3931"/><qTerm  idx="-1"  idxOne="14"  idxTwo="18"  coef=".2535"/><qTerm  idx="-1"  idxOne="15"  idxTwo="15"  coef="1.4072"/><qTerm  idx="-1"  idxOne="15"  idxTwo="18"  coef="1.2656"/><qTerm  idx="-1"  idxOne="16"  idxTwo="17"  coef="-.7277"/><qTerm  idx="-1"  idxOne="16"  idxTwo="19"  coef="1.8085"/><qTerm  idx="-1"  idxOne="17"  idxTwo="18"  coef="-1.751"/><qTerm  idx="-1"  idxOne="17"  idxTwo="19"  coef="-5.16e-2"/><qTerm  idx="0"  idxOne="0"  idxTwo="2"  coef="1.2512"/><qTerm  idx="0"  idxOne="0"  idxTwo="9"  coef="1.2258"/><qTerm  idx="0"  idxOne="0"  idxTwo="12"  coef="1.2012"/><qTerm  idx="0"  idxOne="0"  idxTwo="13"  coef="1.852"/><qTerm  idx="0"  idxOne="0"  idxTwo="15"  coef="-1.7628"/><qTerm  idx="0"  idxOne="1"  idxTwo="3"  coef="1.8378"/><qTerm  idx="0"  idxOne="1"  idxTwo="4"  coef="-.5111"/><qTerm  idx="0"  idxOne="1"  idxTwo="17"  coef="-.4472"/><qTerm  idx="0"  idxOne="2"  idxTwo="3"  coef=".9118"/><qTerm  idx="0"  idxOne="2"  idxTwo="5"  coef="1.5117"/><qTerm  idx="0"  idxOne="2"  idxTwo="8"  coef=".9372"/><qTerm  idx="0"  idxOne="2"  idxTwo="12"  coef="-1.5066"/><qTerm  idx="0"  idxOne="2"  idxTwo="14"  coef=".6342"/><qTerm  idx="0"  idxOne="2"  idxTwo="15"  coef=".1454"/><qTerm  idx="0"  idxOne="2"  idxTwo="17"  coef="1.7357"/><qTerm  idx="0"  idxOne="3"  idxTwo="16"  coef="-1.0022"/><qTerm  idx="0"  idxOne="3"  idxTwo="18"  coef="-1.1787"/><qTerm  idx="0"  idxOne="4"  idxTwo="11"  coef="-1.8552"/><qTerm  idx="0"  idxOne="4"  idxTwo="12"  coef="1.553"/><qTerm  idx="0"  idxOne="4"  idxTwo="13"  coef="-.3997"/><qTerm  idx="0"  idxOne="4"  idxTwo="14"  coef=".562"/><qTerm  idx="0"  idxOne="4"  idxTwo="15"  coef="-.6825"/><qTerm  idx="0"  idxOne="4"  idxTwo="16"  coef="-1.015"/><qTerm  idx="0"  idxOne="5"  idxTwo="7"  coef="-.3582"/><qTerm  idx="0"  idxOne="5"  idxTwo="14"  coef="-1.9095"/><qTerm  idx="0"  idxOne="5"  idxTwo="17"  coef="-1.3313"/><qTerm  idx="0"  idxOne="6"  idxTwo="9"  coef="-.1084"/><qTerm  idx="0"  idxOne="6"  idxTwo="10"  coef="1.5362"/><qTerm  idx="0"  idxOne="6"  idxTwo="11"  coef="-1.5996"/><qTerm  idx="0"  idxOne="6"  idxTwo="14"  coef="-1.8386"/><qTerm  idx="0"  idxOne="6"  idxTwo="16"  coef="-.5887"/><qTerm  idx="0"  idxOne="6"  idxTwo="17"  coef="-.876"/><qTerm  idx="0"  idxOne="6"  idxTwo="19"  coef=".7339"/><qTerm  idx="0"  idxOne="8"  idxTwo="12"  coef="-.8876"/><qTerm  idx="0"  idxOne="8"  idxTwo="14"  coef=".1859"/><qTerm  idx="0"  idxOne="8"  idxTwo="15"  coef="-.13"/><qTerm  idx="0"  idxOne="8"  idxTwo="19"  coef="1.8835"/><qTerm  idx="0"  idxOne="9"  idxTwo="14"  coef="-.4733"/><qTerm  idx="0"  idxOne="9"  idxTwo="17"  coef="1.5287"/><qTerm  idx="0"  idxOne="9"  idxTwo="19"  coef="1.1916"/><qTerm  idx="0"  idxOne="10"  idxTwo="10"  coef="-1.0351"/><qTerm  idx="0"  idxOne="10"  idxTwo="14"  coef="-1.068"/><qTerm  idx="0"  idxOne="11"  idxTwo="12"  coef="-.8802"/><qTerm  idx="0"  idxOne="11"  idxTwo="15"  coef=".7638"/><qTerm  idx="0"  idxOne="12"  idxTwo="12"  coef="-.1289"/><qTerm  idx="0"  idxOne="12"  idxTwo="15"  coef="-1.3742"/><qTerm  idx="0"  idxOne="12"  idxTwo="16"  coef="-.7506"/><qTerm  idx="0"  idxOne="13"  idxTwo="13"  coef=".2842"/><qTerm  idx="0"  idxOne="13"  idxTwo="14"  coef="1.9782"/><qTerm  idx="0"  idxOne="14"  idxTwo="15"  coef="-1.8508"/><qTerm  idx="0"  idxOne="15"  idxTwo="17"  coef="-1.78"/><qTerm  idx="0"  idxOne="15"  idxTwo="19"  coef=".2679"/><qTerm  idx="1"  idxOne="0"  idxTwo="10"  coef="1.5157"/><qTerm  idx="1"  idxOne="0"  idxTwo="11"  coef="-1.6508"/><qTerm  idx="1"  idxOne="0"  idxTwo="15"  coef="-1.9263"/><qTerm  idx="1"  idxOne="0"  idxTwo="18"  coef="1.0058"/><qTerm  idx="1"  idxOne="1"  idxTwo="3"  coef="-1.5281"/><qTerm  idx="1"  idxOne="1"  idxTwo="6"  coef="-1.0622"/><qTerm  idx="1"  idxOne="1"  idxTwo="9"  coef=".8111"/><qTerm  idx="1"  idxOne="2"  idxTwo="7"  coef="-.6647"/><qTerm  idx="1"  idxOne="2"  idxTwo="9"  coef="1.6048"/><qTerm  idx="1"  idxOne="2"  idxTwo="12"  coef=".5795"/><qTerm  idx="1"  idxOne="2"  idxTwo="14"  coef="1.8189"/><qTerm  idx="1"  idxOne="2"  idxTwo="16"  coef="-.6869"/><qTerm  idx="1"  idxOne="2"  idxTwo="18"  coef=".3791"/><qTerm  idx="1"  idxOne="3"  idxTwo="4"  coef="-1.744"/><qTerm  idx="1"  idxOne="3"  idxTwo="8"  coef="-.9994"/><qTerm  idx="1"  idxOne="3"  idxTwo="9"  coef="1.0249"/><qTerm  idx="1"  idxOne="3"  idxTwo="10"  coef="1.876"/><qTerm  idx="1"  idxOne="3"  idxTwo="16"  coef="1.2464"/><qTerm  idx="1"  idxOne="4"  idxTwo="6"  coef="1.3106"/><qTerm  idx="1"  idxOne="4"  idxTwo="7"  coef="1.9346"/><qTerm  idx="1"  idxOne="4"  idxTwo="11"  coef="-2.95e-2"/><qTerm  idx="1"  idxOne="4"  idxTwo="12"  coef="-1.5991"/><qTerm  idx="1"  idxOne="4"  idxTwo="13"  coef="1.0082"/><qTerm  idx="1"  idxOne="4"  idxTwo="15"  coef="1.9807"/><qTerm  idx="1"  idxOne="4"  idxTwo="17"  coef="1.9299"/><qTerm  idx="1"  idxOne="5"  idxTwo="11"  coef="1.5549"/><qTerm  idx="1"  idxOne="5"  idxTwo="19"  coef=".5554"/><qTerm  idx="1"  idxOne="6"  idxTwo="10"  coef="-.6813"/><qTerm  idx="1"  idxOne="6"  idxTwo="12"  coef=".5911"/><qTerm  idx="1"  idxOne="6"  idxTwo="13"  coef="-.9076"/><qTerm  idx="1"  idxOne="6"  idxTwo="14"  coef="-3.2e-2"/><qTerm  idx="1"  idxOne="6"  idxTwo="15"  coef="-.3218"/><qTerm  idx="1"  idxOne="6"  idxTwo="19"  coef="-.3507"/><qTerm  idx="1"  idxOne="7"  idxTwo="9"  coef="-1.4723"/><qTerm  idx="1"  idxOne="7"  idxTwo="13"  coef="-1.6486"/><qTerm  idx="1"  idxOne="7"  idxTwo="16"  coef=".6399"/><qTerm  idx="1"  idxOne="7"  idxTwo="19"  coef="1.9072"/><qTerm  idx="1"  idxOne="9"  idxTwo="10"  coef=".2049"/><qTerm  idx="1"  idxOne="9"  idxTwo="11"  coef="3.36e-2"/><qTerm  idx="1"  idxOne="9"  idxTwo="12"  coef="-.4955"/><qTerm  idx="1"  idxOne="9"  idxTwo="13"  coef="-.5513"/><qTerm  idx="1"  idxOne="10"  idxTwo="11"  coef="-1.3377"/><qTerm  idx="1"  idxOne="11"  idxTwo="17"  coef="1.1848"/><qTerm  idx="1"  idxOne="12"  idxTwo="13"  coef="1.6327"/><qTerm  idx="1"  idxOne="12"  idxTwo="18"  coef="1.0843"/><qTerm  idx="1"  idxOne="13"  idxTwo="14"  coef="1.7344"/><qTerm  idx="1"  idxOne="13"  idxTwo="18"  coef=".5447"/><qTerm  idx="1"  idxOne="14"  idxTwo="16"  coef="-.7182"/><qTerm  idx="1"  idxOne="14"  idxTwo="18"  coef="-.4471"/><qTerm  idx="1"  idxOne="15"  idxTwo="16"  coef=".7918"/><qTerm  idx="1"  idxOne="16"  idxTwo="16"  coef="-.4778"/><qTerm  idx="1"  idxOne="16"  idxTwo="18"  coef=".4198"/><qTerm  idx="2"  idxOne="0"  idxTwo="1"  coef="-.2781"/><qTerm  idx="2"  idxOne="0"  idxTwo="13"  coef="-.674"/><qTerm  idx="2"  idxOne="0"  idxTwo="16"  coef="-1.6596"/><qTerm  idx="2"  idxOne="0"  idxTwo="17"  coef=".5786"/><qTerm  idx="2"  idxOne="1"  idxTwo="3"  coef="7.4e-3"/><qTerm  idx="2"  idxOne="1"  idxTwo="6"  coef="-1.6953"/><qTerm  idx="2"  idxOne="1"  idxTwo="7"  coef="-.6323"/><qTerm  idx="2"  idxOne="1"  idxTwo="11"  coef=".2676"/><qTerm  idx="2"  idxOne="1"  idxTwo="18"  coef="-.4047"/><qTerm  idx="2"  idxOne="2"  idxTwo="2"  coef="-1.4656"/><qTerm  idx="2"  idxOne="2"  idxTwo="3"  coef=".5497"/><qTerm  idx="2"  idxOne="2"  idxTwo="4"  coef="-1.3289"/><qTerm  idx="2"  idxOne="2"  idxTwo="7"  coef="-1.1785"/><qTerm  idx="2"  idxOne="3"  idxTwo="8"  coef=".9338"/><qTerm  idx="2"  idxOne="3"  idxTwo="15"  coef=".7481"/><qTerm  idx="2"  idxOne="3"  idxTwo="18"  coef=".9811"/><qTerm  idx="2"  idxOne="4"  idxTwo="11"  coef=".6523"/><qTerm  idx="2"  idxOne="4"  idxTwo="17"  coef="-.4444"/><qTerm  idx="2"  idxOne="4"  idxTwo="18"  coef="-1.3022"/><qTerm  idx="2"  idxOne="5"  idxTwo="8"  coef=".1863"/><qTerm  idx="2"  idxOne="5"  idxTwo="11"  coef=".8307"/><qTerm  idx="2"  idxOne="5"  idxTwo="17"  coef="-.8089"/><qTerm  idx="2"  idxOne="5"  idxTwo="19"  coef="-1.2389"/><qTerm  idx="2"  idxOne="6"  idxTwo="8"  coef="1.2598"/><qTerm  idx="2"  idxOne="6"  idxTwo="11"  coef=".1653"/><qTerm  idx="2"  idxOne="7"  idxTwo="8"  coef=".3841"/><qTerm  idx="2"  idxOne="7"  idxTwo="9"  coef="-.7516"/><qTerm  idx="2"  idxOne="7"  idxTwo="15"  coef="-1.1099"/><qTerm  idx="2"  idxOne="7"  idxTwo="16"  coef="-1.5217"/><qTerm  idx="2"  idxOne="7"  idxTwo="17"  coef="1.1931"/><qTerm  idx="2"  idxOne="7"  idxTwo="18"  coef="1.3097"/><qTerm  idx="2"  idxOne="8"  idxTwo="9"  coef="-.7012"/><qTerm  idx="2"  idxOne="8"  idxTwo="11"  coef="1.9916"/><qTerm  idx="2"  idxOne="8"  idxTwo="12"  coef="-1.1794"/><qTerm  idx="2"  idxOne="8"  idxTwo="13"  coef="-.7046"/><qTerm  idx="2"  idxOne="9"  idxTwo="10"  coef="-.7805"/><qTerm  idx="2"  idxOne="9"  idxTwo="13"  coef="-1.1633"/><qTerm  idx="2"  idxOne="9"  idxTwo="17"  coef="-.8025"/><qTerm  idx="2"  idxOne="10"  idxTwo="14"  coef="-.2869"/><qTerm  idx="2"  idxOne="10"  idxTwo="15"  coef="-1.3042"/><qTerm  idx="2"  idxOne="10"  idxTwo="16"  coef=".1074"/><qTerm  idx="2"  idxOne="10"  idxTwo="17"  coef="1.8872"/><qTerm  idx="2"  idxOne="11"  idxTwo="15"  coef="1.6681"/><qTerm  idx="2"  idxOne="12"  idxTwo="12"  coef="1.8575"/><qTerm  idx="2"  idxOne="12"  idxTwo="15"  coef="-.578"/><qTerm  idx="2"  idxOne="13"  idxTwo="14"  coef="-1.1326"/><qTerm  idx="2"  idxOne="13"  idxTwo="16"  coef="-1.6136"/><qTerm  idx="2"  idxOne="13"  idxTwo="17"  coef="1.5616"/><qTerm  idx="2"  idxOne="14"  idxTwo="14"  coef="-.7093"/><qTerm  idx="2"  idxOne="14"  idxTwo="16"  coef="-.9858"/><qTerm  idx="2"  idxOne="15"  idxTwo="18"  coef="-1.5939"/><qTerm  idx="2"  idxOne="16"  idxTwo="18"  coef="1.6095"/><qTerm  idx="3"  idxOne="0"  idxTwo="6"  coef="-1.5011"/><qTerm  idx="3"  idxOne="1"  idxTwo="3"  coef="1.4901"/><qTerm  idx="3"  idxOne="1"  idxTwo="4"  coef=".4095"/><qTerm  idx="3"  idxOne="1"  idxTwo="6"  coef="-1.8768"/><qTerm  idx="3"  idxOne="1"  idxTwo="13"  coef="1.6496"/><qTerm  idx="3"  idxOne="1"  idxTwo="14"  coef="-.1385"/><qTerm  idx="3"  idxOne="1"  idxTwo="15"  coef="1.3557"/><qTerm  idx="3"  idxOne="1"  idxTwo="17"  coef="1.9972"/><qTerm  idx="3"  idxOne="1"  idxTwo="18"  coef=".1674"/><qTerm  idx="3"  idxOne="1"  idxTwo="19"  coef=".4527"/><qTerm  idx="3"  idxOne="2"  idxTwo="2"  coef="-1.4447"/><qTerm  idx="3"  idxOne="2"  idxTwo="4"  coef=".3773"/><qTerm  idx="3"  idxOne="2"  idxTwo="9"  coef="-.2698"/><qTerm  idx="3"  idxOne="2"  idxTwo="12"  coef="-1.8679"/><qTerm  idx="3"  idxOne="2"  idxTwo="18"  coef="-1.364"/><qTerm  idx="3"  idxOne="3"  idxTwo="4"  coef="-.6357"/><qTerm  idx="3"  idxOne="3"  idxTwo="13"  coef=".545"/><qTerm  idx="3"  idxOne="3"  idxTwo="14"  coef="-1.7635"/><qTerm  idx="3"  idxOne="3"  idxTwo="18"  coef="-.2371"/><qTerm  idx="3"  idxOne="4"  idxTwo="4"  coef=".7601"/><qTerm  idx="3"  idxOne="4"  idxTwo="10"  coef="-.8135"/><qTerm  idx="3"  idxOne="4"  idxTwo="11"  coef="-1.6583"/><qTerm  idx="3"  idxOne="4"  idxTwo="12"  coef="1.5519"/><qTerm  idx="3"  idxOne="4"  idxTwo="17"  coef="-1.5226"/><qTerm  idx="3"  idxOne="5"  idxTwo="13"  coef="6.9e-3"/><qTerm  idx="3"  idxOne="6"  idxTwo="6"  coef="-.1611"/><qTerm  idx="3"  idxOne="6"  idxTwo="7"  coef="1.7689"/><qTerm  idx="3"  idxOne="6"  idxTwo="8"  coef="1.9115"/><qTerm  idx="3"  idxOne="6"  idxTwo="12"  coef=".5716"/><qTerm  idx="3"  idxOne="6"  idxTwo="14"  coef="-1.6748"/><qTerm  idx="3"  idxOne="6"  idxTwo="15"  coef="-.1007"/><qTerm  idx="3"  idxOne="6"  idxTwo="17"  coef="-1.7852"/><qTerm  idx="3"  idxOne="7"  idxTwo="16"  coef="-.6822"/><qTerm  idx="3"  idxOne="7"  idxTwo="18"  coef="1.2304"/><qTerm  idx="3"  idxOne="8"  idxTwo="17"  coef="1.004"/><qTerm  idx="3"  idxOne="9"  idxTwo="13"  coef="-1.76"/><qTerm  idx="3"  idxOne="9"  idxTwo="16"  coef=".8101"/><qTerm  idx="3"  idxOne="9"  idxTwo="17"  coef="1.1956"/><qTerm  idx="3"  idxOne="10"  idxTwo="11"  coef="6.05e-2"/><qTerm  idx="3"  idxOne="11"  idxTwo="15"  coef="8.8e-3"/><qTerm  idx="3"  idxOne="11"  idxTwo="17"  coef=".8657"/><qTerm  idx="3"  idxOne="11"  idxTwo="18"  coef="-.5209"/><qTerm  idx="3"  idxOne="12"  idxTwo="15"  coef=".7846"/><qTerm  idx="3"  idxOne="12"  idxTwo="16"  coef="-.9649"/><qTerm  idx="3"  idxOne="13"  idxTwo="13"  coef="-1.3153"/><qTerm  idx="3"  idxOne="13"  idxTwo="14"  coef="1.1885"/><qTerm  idx="3"  idxOne="13"  idxTwo="19"  coef="1.2609"/><qTerm  idx="3"  idxOne="14"  idxTwo="15"  coef="-1.393"/><qTerm  idx="3"  idxOne="14"  idxTwo="16"  coef="-1.865"/><qTerm  idx="3"  idxOne="14"  idxTwo="17"  coef="-1.8503"/><qTerm  idx="3"  idxOne="15"  idxTwo="18"  coef="-.9692"/><qTerm  idx="3"  idxOne="16"  idxTwo="18"  coef="-.9315"/><qTerm  idx="4"  idxOne="0"  idxTwo="4"  coef="8.75e-2"/><qTerm  idx="4"  idxOne="0"  idxTwo="7"  coef=".9081"/><qTerm  idx="4"  idxOne="1"  idxTwo="3"  coef="-.7713"/><qTerm  idx="4"  idxOne="1"  idxTwo="5"  coef=".64"/><qTerm  idx="4"  idxOne="1"  idxTwo="6"  coef=".1785"/><qTerm  idx="4"  idxOne="1"  idxTwo="8"  coef="-1.7732"/><qTerm  idx="4"  idxOne="1"  idxTwo="11"  coef="1.7094"/><qTerm  idx="4"  idxOne="1"  idxTwo="17"  coef="-.7449"/><qTerm  idx="4"  idxOne="2"  idxTwo="5"  coef=".2869"/><qTerm  idx="4"  idxOne="2"  idxTwo="7"  coef="-.9681"/><qTerm  idx="4"  idxOne="2"  idxTwo="17"  coef=".1977"/><qTerm  idx="4"  idxOne="3"  idxTwo="4"  coef=".8524"/><qTerm  idx="4"  idxOne="3"  idxTwo="10"  coef="-1.4985"/><qTerm  idx="4"  idxOne="3"  idxTwo="13"  coef="-.4093"/><qTerm  idx="4"  idxOne="3"  idxTwo="16"  coef=".1534"/><qTerm  idx="4"  idxOne="3"  idxTwo="17"  coef="1.9512"/><qTerm  idx="4"  idxOne="4"  idxTwo="5"  coef="1.1821"/><qTerm  idx="4"  idxOne="4"  idxTwo="6"  coef="1.5804"/><qTerm  idx="4"  idxOne="4"  idxTwo="8"  coef="-.5029"/><qTerm  idx="4"  idxOne="4"  idxTwo="14"  coef="-.2916"/><qTerm  idx="4"  idxOne="4"  idxTwo="17"  coef="-1.941"/><qTerm  idx="4"  idxOne="4"  idxTwo="19"  coef="-.5563"/><qTerm  idx="4"  idxOne="5"  idxTwo="6"  coef="-.8511"/><qTerm  idx="4"  idxOne="5"  idxTwo="7"  coef="-1.3022"/><qTerm  idx="4"  idxOne="5"  idxTwo="8"  coef="-.8632"/><qTerm  idx="4"  idxOne="5"  idxTwo="11"  coef="-1.4591"/><qTerm  idx="4"  idxOne="5"  idxTwo="12"  coef="-1.1611"/><qTerm  idx="4"  idxOne="6"  idxTwo="12"  coef="1.137"/><qTerm  idx="4"  idxOne="6"  idxTwo="19"  coef="-1.9958"/><qTerm  idx="4"  idxOne="7"  idxTwo="10"  coef="-1.3843"/><qTerm  idx="4"  idxOne="7"  idxTwo="11"  coef="-1.0758"/><qTerm  idx="4"  idxOne="7"  idxTwo="12"  coef="-1.8428"/><qTerm  idx="4"  idxOne="7"  idxTwo="16"  coef=".7872"/><qTerm  idx="4"  idxOne="8"  idxTwo="10"  coef="1.3273"/><qTerm  idx="4"  idxOne="8"  idxTwo="17"  coef="1.412"/><qTerm  idx="4"  idxOne="9"  idxTwo="9"  coef="-1.3363"/><qTerm  idx="4"  idxOne="10"  idxTwo="13"  coef="1.0924"/><qTerm  idx="4"  idxOne="10"  idxTwo="15"  coef=".5705"/><qTerm  idx="4"  idxOne="10"  idxTwo="16"  coef="6.3e-2"/><qTerm  idx="4"  idxOne="11"  idxTwo="17"  coef="1.8094"/><qTerm  idx="4"  idxOne="11"  idxTwo="18"  coef=".1592"/><qTerm  idx="4"  idxOne="12"  idxTwo="15"  coef="1.0488"/><qTerm  idx="4"  idxOne="12"  idxTwo="16"  coef="1.5872"/><qTerm  idx="4"  idxOne="12"  idxTwo="17"  coef="-7.78e-2"/><qTerm  idx="4"  idxOne="12"  idxTwo="19"  coef="1.0814"/><qTerm  idx="4"  idxOne="13"  idxTwo="16"  coef="1.85e-2"/><qTerm  idx="4"  idxOne="13"  idxTwo="17"  coef="-.2156"/><qTerm  idx="4"  idxOne="14"  idxTwo="15"  coef="-.1251"/><qTerm  idx="4"  idxOne="14"  idxTwo="16"  coef="-.2171"/><qTerm  idx="4"  idxOne="15"  idxTwo="16"  coef="2.86e-2"/><qTerm  idx="4"  idxOne="17"  idxTwo="19"  coef=".1737"/><qTerm  idx="4"  idxOne="18"  idxTwo="18"  coef=".8893"/><qTerm  idx="5"  idxOne="0"  idxTwo="2"  coef="-1.0198"/><qTerm  idx="5"  idxOne="0"  idxTwo="3"  coef="-1.4073"/><qTerm  idx="5"  idxOne="0"  idxTwo="7"  coef="-1.6918"/><qTerm  idx="5"  idxOne="1"  idxTwo="1"  coef=".1987"/><qTerm  idx="5"  idxOne="1"  idxTwo="2"  coef=".1862"/><qTerm  idx="5"  idxOne="1"  idxTwo="3"  coef=".3976"/><qTerm  idx="5"  idxOne="1"  idxTwo="6"  coef="-.3864"/><qTerm  idx="5"  idxOne="1"  idxTwo="8"  coef="-.7228"/><qTerm  idx="5"  idxOne="1"  idxTwo="10"  coef=".3454"/><qTerm  idx="5"  idxOne="1"  idxTwo="15"  coef="1.3266"/><qTerm  idx="5"  idxOne="1"  idxTwo="18"  coef="-.7767"/><qTerm  idx="5"  idxOne="2"  idxTwo="6"  coef=".6078"/><qTerm  idx="5"  idxOne="2"  idxTwo="8"  coef="-1.9993"/><qTerm  idx="5"  idxOne="2"  idxTwo="16"  coef=".6487"/><qTerm  idx="5"  idxOne="3"  idxTwo="5"  coef="-.831"/><qTerm  idx="5"  idxOne="3"  idxTwo="8"  coef="-.4734"/><qTerm  idx="5"  idxOne="3"  idxTwo="11"  coef=".8385"/><qTerm  idx="5"  idxOne="3"  idxTwo="12"  coef="-.4542"/><qTerm  idx="5"  idxOne="3"  idxTwo="15"  coef="-1.8329"/><qTerm  idx="5"  idxOne="3"  idxTwo="16"  coef="-7.71e-2"/><qTerm  idx="5"  idxOne="3"  idxTwo="17"  coef=".1902"/><qTerm  idx="5"  idxOne="3"  idxTwo="19"  coef="1.5211"/><qTerm  idx="5"  idxOne="4"  idxTwo="4"  coef="1.849"/><qTerm  idx="5"  idxOne="4"  idxTwo="11"  coef="-1.1969"/><qTerm  idx="5"  idxOne="4"  idxTwo="15"  coef=".8597"/><qTerm  idx="5"  idxOne="4"  idxTwo="17"  coef="1.7666"/><qTerm  idx="5"  idxOne="5"  idxTwo="6"  coef="-.2538"/><qTerm  idx="5"  idxOne="5"  idxTwo="12"  coef="4.94e-2"/><qTerm  idx="5"  idxOne="5"  idxTwo="19"  coef=".5149"/><qTerm  idx="5"  idxOne="6"  idxTwo="6"  coef=".5607"/><qTerm  idx="5"  idxOne="6"  idxTwo="8"  coef="1.5243"/><qTerm  idx="5"  idxOne="6"  idxTwo="12"  coef="-1.7519"/><qTerm  idx="5"  idxOne="6"  idxTwo="15"  coef=".4142"/><qTerm  idx="5"  idxOne="7"  idxTwo="9"  coef="-.4165"/><qTerm  idx="5"  idxOne="7"  idxTwo="14"  coef="-.623"/><qTerm  idx="5"  idxOne="7"  idxTwo="19"  coef="1.736"/><qTerm  idx="5"  idxOne="8"  idxTwo="9"  coef="-1.5326"/><qTerm  idx="5"  idxOne="8"  idxTwo="12"  coef="-1.2291"/><qTerm  idx="5"  idxOne="8"  idxTwo="17"  coef=".4032"/><qTerm  idx="5"  idxOne="9"  idxTwo="11"  coef="1.8252"/><qTerm  idx="5"  idxOne="9"  idxTwo="16"  coef=".857"/><qTerm  idx="5"  idxOne="9"  idxTwo="18"  coef="-.8244"/><qTerm  idx="5"  idxOne="10"  idxTwo="13"  coef=".3874"/><qTerm  idx="5"  idxOne="10"  idxTwo="14"  coef="-.3064"/><qTerm  idx="5"  idxOne="10"  idxTwo="17"  coef=".7757"/><qTerm  idx="5"  idxOne="11"  idxTwo="12"  coef="-1.4"/><qTerm  idx="5"  idxOne="11"  idxTwo="18"  coef="-1.5984"/><qTerm  idx="5"  idxOne="13"  idxTwo="18"  coef=".9707"/><qTerm  idx="5"  idxOne="14"  idxTwo="16"  coef="1.596"/><qTerm  idx="5"  idxOne="15"  idxTwo="17"  coef="-.5999"/><qTerm  idx="5"  idxOne="15"  idxTwo="18"  coef="-.8743"/><qTerm  idx="5"  idxOne="18"  idxTwo="18"  coef="-1.3717"/><qTerm  idx="6"  idxOne="0"  idxTwo="1"  coef=".7373"/><qTerm  idx="6"  idxOne="0"  idxTwo="11"  coef=".8006"/><qTerm  idx="6"  idxOne="0"  idxTwo="17"  coef="-1.1679"/><qTerm  idx="6"  idxOne="0"  idxTwo="18"  coef="1.7457"/><qTerm  idx="6"  idxOne="1"  idxTwo="2"  coef=".2946"/><qTerm  idx="6"  idxOne="1"  idxTwo="4"  coef="-1.294"/><qTerm  idx="6"  idxOne="1"  idxTwo="10"  coef="-1.8123"/><qTerm  idx="6"  idxOne="1"  idxTwo="15"  coef="-1.1642"/><qTerm  idx="6"  idxOne="1"  idxTwo="16"  coef="-.6171"/><qTerm  idx="6"  idxOne="2"  idxTwo="3"  coef="1.8396"/><qTerm  idx="6"  idxOne="2"  idxTwo="7"  coef="-1.7959"/><qTerm  idx="6"  idxOne="2"  idxTwo="10"  coef="-1.8009"/><qTerm  idx="6"  idxOne="2"  idxTwo="13"  coef="-1.2882"/><qTerm  idx="6"  idxOne="2"  idxTwo="14"  coef="1.5833"/><qTerm  idx="6"  idxOne="2"  idxTwo="15"  coef="-1.7082"/><qTerm  idx="6"  idxOne="2"  idxTwo="16"  coef=".137"/><qTerm  idx="6"  idxOne="3"  idxTwo="6"  coef=".7172"/><qTerm  idx="6"  idxOne="3"  idxTwo="9"  coef="-.7283"/><qTerm  idx="6"  idxOne="3"  idxTwo="13"  coef=".272"/><qTerm  idx="6"  idxOne="3"  idxTwo="16"  coef="-.2714"/><qTerm  idx="6"  idxOne="4"  idxTwo="7"  coef=".7573"/><qTerm  idx="6"  idxOne="4"  idxTwo="9"  coef="-.3858"/><qTerm  idx="6"  idxOne="4"  idxTwo="12"  coef="-1.6531"/><qTerm  idx="6"  idxOne="4"  idxTwo="18"  coef="-1.4995"/><qTerm  idx="6"  idxOne="5"  idxTwo="7"  coef="-1.6111"/><qTerm  idx="6"  idxOne="5"  idxTwo="8"  coef="-1.3685"/><qTerm  idx="6"  idxOne="5"  idxTwo="13"  coef="-1.1392"/><qTerm  idx="6"  idxOne="5"  idxTwo="14"  coef="-.9908"/><qTerm  idx="6"  idxOne="5"  idxTwo="17"  coef="-1.7313"/><qTerm  idx="6"  idxOne="6"  idxTwo="6"  coef="-.6083"/><qTerm  idx="6"  idxOne="6"  idxTwo="10"  coef="1.5218"/><qTerm  idx="6"  idxOne="6"  idxTwo="11"  coef=".7455"/><qTerm  idx="6"  idxOne="7"  idxTwo="8"  coef=".6824"/><qTerm  idx="6"  idxOne="7"  idxTwo="9"  coef="-.5518"/><qTerm  idx="6"  idxOne="7"  idxTwo="10"  coef="-1.4603"/><qTerm  idx="6"  idxOne="7"  idxTwo="13"  coef="-1.3944"/><qTerm  idx="6"  idxOne="7"  idxTwo="15"  coef=".6228"/><qTerm  idx="6"  idxOne="7"  idxTwo="19"  coef="-1.7265"/><qTerm  idx="6"  idxOne="8"  idxTwo="10"  coef="-1.1648"/><qTerm  idx="6"  idxOne="8"  idxTwo="11"  coef="-1.5e-2"/><qTerm  idx="6"  idxOne="9"  idxTwo="9"  coef="-1.3858"/><qTerm  idx="6"  idxOne="9"  idxTwo="10"  coef="-1.2582"/><qTerm  idx="6"  idxOne="9"  idxTwo="17"  coef=".7686"/><qTerm  idx="6"  idxOne="9"  idxTwo="18"  coef=".8528"/><qTerm  idx="6"  idxOne="10"  idxTwo="10"  coef="1.7279"/><qTerm  idx="6"  idxOne="11"  idxTwo="13"  coef=".396"/><qTerm  idx="6"  idxOne="11"  idxTwo="14"  coef="-.7216"/><qTerm  idx="6"  idxOne="11"  idxTwo="15"  coef="-1.8351"/><qTerm  idx="6"  idxOne="13"  idxTwo="17"  coef="-.9896"/><qTerm  idx="6"  idxOne="14"  idxTwo="18"  coef="9.39e-2"/><qTerm  idx="6"  idxOne="15"  idxTwo="16"  coef="-.1017"/><qTerm  idx="6"  idxOne="16"  idxTwo="16"  coef="-1.4233"/><qTerm  idx="7"  idxOne="0"  idxTwo="1"  coef=".8393"/><qTerm  idx="7"  idxOne="0"  idxTwo="4"  coef=".4684"/><qTerm  idx="7"  idxOne="0"  idxTwo="10"  coef=".7519"/><qTerm  idx="7"  idxOne="1"  idxTwo="4"  coef=".8672"/><qTerm  idx="7"  idxOne="1"  idxTwo="8"  coef="3.71e-2"/><qTerm  idx="7"  idxOne="1"  idxTwo="9"  coef="1.9588"/><qTerm  idx="7"  idxOne="1"  idxTwo="15"  coef="-1.4958"/><qTerm  idx="7"  idxOne="2"  idxTwo="11"  coef="1.9109"/><qTerm  idx="7"  idxOne="2"  idxTwo="12"  coef="-.9264"/><qTerm  idx="7"  idxOne="3"  idxTwo="10"  coef="-1.0872"/><qTerm  idx="7"  idxOne="3"  idxTwo="11"  coef="-.1098"/><qTerm  idx="7"  idxOne="3"  idxTwo="14"  coef="1.6917"/><qTerm  idx="7"  idxOne="4"  idxTwo="12"  coef=".2932"/><qTerm  idx="7"  idxOne="4"  idxTwo="13"  coef=".6767"/><qTerm  idx="7"  idxOne="4"  idxTwo="14"  coef="-.8856"/><qTerm  idx="7"  idxOne="4"  idxTwo="15"  coef=".9522"/><qTerm  idx="7"  idxOne="4"  idxTwo="16"  coef=".6651"/><qTerm  idx="7"  idxOne="4"  idxTwo="17"  coef="1.1446"/><qTerm  idx="7"  idxOne="5"  idxTwo="10"  coef="-1.3955"/><qTerm  idx="7"  idxOne="5"  idxTwo="12"  coef="-1.3219"/><qTerm  idx="7"  idxOne="5"  idxTwo="13"  coef="1.846"/><qTerm  idx="7"  idxOne="5"  idxTwo="14"  coef="1.1535"/><qTerm  idx="7"  idxOne="5"  idxTwo="17"  coef=".1167"/><qTerm  idx="7"  idxOne="5"  idxTwo="19"  coef="1.1065"/><qTerm  idx="7"  idxOne="6"  idxTwo="6"  coef="-.3846"/><qTerm  idx="7"  idxOne="6"  idxTwo="10"  coef="-1.3202"/><qTerm  idx="7"  idxOne="6"  idxTwo="13"  coef="1.7208"/><qTerm  idx="7"  idxOne="6"  idxTwo="14"  coef="-.8495"/><qTerm  idx="7"  idxOne="6"  idxTwo="19"  coef="-.1258"/><qTerm  idx="7"  idxOne="7"  idxTwo="18"  coef="-.3105"/><qTerm  idx="7"  idxOne="7"  idxTwo="19"  coef=".4642"/><qTerm  idx="7"  idxOne="8"  idxTwo="8"  coef="-1.1983"/><qTerm  idx="7"  idxOne="8"  idxTwo="9"  coef=".3605"/><qTerm  idx="7"  idxOne="8"  idxTwo="12"  coef=".9631"/><qTerm  idx="7"  idxOne="8"  idxTwo="13"  coef="-1.0144"/><qTerm  idx="7"  idxOne="8"  idxTwo="19"  coef="-1.1409"/><qTerm  idx="7"  idxOne="9"  idxTwo="9"  coef="-.8167"/><qTerm  idx="7"  idxOne="9"  idxTwo="13"  coef="1.6563"/><qTerm  idx="7"  idxOne="9"  idxTwo="16"  coef="-1.0694"/><qTerm  idx="7"  idxOne="9"  idxTwo="17"  coef=".5524"/><qTerm  idx="7"  idxOne="9"  idxTwo="18"  coef=".2868"/><qTerm  idx="7"  idxOne="10"  idxTwo="15"  coef=".88"/><qTerm  idx="7"  idxOne="10"  idxTwo="18"  coef=".5968"/><qTerm  idx="7"  idxOne="11"  idxTwo="13"  coef="1.2822"/><qTerm  idx="7"  idxOne="11"  idxTwo="18"  coef="-1.7226"/><qTerm  idx="7"  idxOne="12"  idxTwo="13"  coef="-.7223"/><qTerm  idx="7"  idxOne="12"  idxTwo="16"  coef="-1.8786"/><qTerm  idx="7"  idxOne="12"  idxTwo="17"  coef="-1.9651"/><qTerm  idx="7"  idxOne="13"  idxTwo="15"  coef="-1.8189"/><qTerm  idx="7"  idxOne="14"  idxTwo="17"  coef="5.73e-2"/><qTerm  idx="7"  idxOne="14"  idxTwo="18"  coef="1.6067"/><qTerm  idx="7"  idxOne="14"  idxTwo="19"  coef=".6964"/><qTerm  idx="8"  idxOne="0"  idxTwo="0"  coef="1.3926"/><qTerm  idx="8"  idxOne="0"  idxTwo="10"  coef="1.0636"/><qTerm  idx="8"  idxOne="1"  idxTwo="2"  coef="1.7818"/><qTerm  idx="8"  idxOne="1"  idxTwo="8"  coef="-.6627"/><qTerm  idx="8"  idxOne="1"  idxTwo="12"  coef="1.9724"/><qTerm  idx="8"  idxOne="1"  idxTwo="16"  coef="-1.9236"/><qTerm  idx="8"  idxOne="1"  idxTwo="18"  coef="-1.1085"/><qTerm  idx="8"  idxOne="2"  idxTwo="6"  coef="-1.8124"/><qTerm  idx="8"  idxOne="2"  idxTwo="7"  coef="-1.767"/><qTerm  idx="8"  idxOne="2"  idxTwo="11"  coef="-.3736"/><qTerm  idx="8"  idxOne="2"  idxTwo="12"  coef="-.5761"/><qTerm  idx="8"  idxOne="2"  idxTwo="13"  coef="-.6808"/><qTerm  idx="8"  idxOne="2"  idxTwo="18"  coef="-.2287"/><qTerm  idx="8"  idxOne="3"  idxTwo="4"  coef="-.3151"/><qTerm  idx="8"  idxOne="3"  idxTwo="9"  coef="-.9957"/><qTerm  idx="8"  idxOne="3"  idxTwo="10"  coef="1.4879"/><qTerm  idx="8"  idxOne="3"  idxTwo="11"  coef="-1.1754"/><qTerm  idx="8"  idxOne="3"  idxTwo="12"  coef="-1.1056"/><qTerm  idx="8"  idxOne="3"  idxTwo="13"  coef="1.7522"/><qTerm  idx="8"  idxOne="3"  idxTwo="15"  coef="-1.954"/><qTerm  idx="8"  idxOne="3"  idxTwo="17"  coef="-1.3233"/><qTerm  idx="8"  idxOne="4"  idxTwo="7"  coef="-1.9467"/><qTerm  idx="8"  idxOne="4"  idxTwo="10"  coef=".7539"/><qTerm  idx="8"  idxOne="4"  idxTwo="11"  coef="-1.3533"/><qTerm  idx="8"  idxOne="4"  idxTwo="16"  coef="-1.176"/><qTerm  idx="8"  idxOne="4"  idxTwo="17"  coef="1.4617"/><qTerm  idx="8"  idxOne="4"  idxTwo="19"  coef="1.8399"/><qTerm  idx="8"  idxOne="5"  idxTwo="9"  coef="1.7355"/><qTerm  idx="8"  idxOne="6"  idxTwo="7"  coef="1.9644"/><qTerm  idx="8"  idxOne="6"  idxTwo="16"  coef=".315"/><qTerm  idx="8"  idxOne="7"  idxTwo="9"  coef="1.0815"/><qTerm  idx="8"  idxOne="7"  idxTwo="11"  coef="-.9049"/><qTerm  idx="8"  idxOne="7"  idxTwo="13"  coef=".2918"/><qTerm  idx="8"  idxOne="7"  idxTwo="19"  coef="1.233"/><qTerm  idx="8"  idxOne="8"  idxTwo="9"  coef=".3336"/><qTerm  idx="8"  idxOne="8"  idxTwo="11"  coef="1.9979"/><qTerm  idx="8"  idxOne="9"  idxTwo="11"  coef=".2374"/><qTerm  idx="8"  idxOne="9"  idxTwo="12"  coef="-1.7319"/><qTerm  idx="8"  idxOne="9"  idxTwo="13"  coef="1.9526"/><qTerm  idx="8"  idxOne="9"  idxTwo="14"  coef="-.6854"/><qTerm  idx="8"  idxOne="9"  idxTwo="15"  coef="-.5682"/><qTerm  idx="8"  idxOne="9"  idxTwo="16"  coef=".9709"/><qTerm  idx="8"  idxOne="10"  idxTwo="12"  coef="1.5661"/><qTerm  idx="8"  idxOne="10"  idxTwo="17"  coef="-.7303"/><qTerm  idx="8"  idxOne="11"  idxTwo="12"  coef="-1.4079"/><qTerm  idx="8"  idxOne="13"  idxTwo="13"  coef="1.2544"/><qTerm  idx="8"  idxOne="13"  idxTwo="16"  coef="1.6273"/><qTerm  idx="8"  idxOne="14"  idxTwo="18"  coef=".5488"/><qTerm  idx="8"  idxOne="15"  idxTwo="16"  coef="-.3954"/><qTerm  idx="8"  idxOne="15"  idxTwo="17"  coef="-1.6222"/><qTerm  idx="8"  idxOne="15"  idxTwo="18"  coef="-1.7798"/><qTerm  idx="8"  idxOne="16"  idxTwo="17"  coef="-9.86e-2"/><qTerm  idx="9"  idxOne="0"  idxTwo="7"  coef="-.9455"/><qTerm  idx="9"  idxOne="0"  idxTwo="10"  coef="1.2221"/><qTerm  idx="9"  idxOne="0"  idxTwo="17"  coef=".9973"/><qTerm  idx="9"  idxOne="1"  idxTwo="4"  coef="1.4827"/><qTerm  idx="9"  idxOne="1"  idxTwo="5"  coef="1.3034"/><qTerm  idx="9"  idxOne="1"  idxTwo="6"  coef="-.3653"/><qTerm  idx="9"  idxOne="1"  idxTwo="10"  coef="1.7129"/><qTerm  idx="9"  idxOne="1"  idxTwo="11"  coef="-.8425"/><qTerm  idx="9"  idxOne="2"  idxTwo="8"  coef="-1.6941"/><qTerm  idx="9"  idxOne="2"  idxTwo="11"  coef="1.8429"/><qTerm  idx="9"  idxOne="2"  idxTwo="15"  coef=".5309"/><qTerm  idx="9"  idxOne="3"  idxTwo="6"  coef="-.602"/><qTerm  idx="9"  idxOne="3"  idxTwo="7"  coef="-1.8722"/><qTerm  idx="9"  idxOne="3"  idxTwo="8"  coef="-.4137"/><qTerm  idx="9"  idxOne="3"  idxTwo="17"  coef="-1.2902"/><qTerm  idx="9"  idxOne="3"  idxTwo="18"  coef=".5195"/><qTerm  idx="9"  idxOne="4"  idxTwo="5"  coef="-1.9959"/><qTerm  idx="9"  idxOne="4"  idxTwo="6"  coef=".3732"/><qTerm  idx="9"  idxOne="4"  idxTwo="8"  coef="-1.3674"/><qTerm  idx="9"  idxOne="4"  idxTwo="9"  coef="-1.3731"/><qTerm  idx="9"  idxOne="4"  idxTwo="10"  coef="-.3031"/><qTerm  idx="9"  idxOne="4"  idxTwo="12"  coef="-.1083"/><qTerm  idx="9"  idxOne="4"  idxTwo="14"  coef="-.3479"/><qTerm  idx="9"  idxOne="5"  idxTwo="5"  coef=".5768"/><qTerm  idx="9"  idxOne="5"  idxTwo="6"  coef="-5.41e-2"/><qTerm  idx="9"  idxOne="5"  idxTwo="12"  coef=".3441"/><qTerm  idx="9"  idxOne="6"  idxTwo="6"  coef="-1.2131"/><qTerm  idx="9"  idxOne="6"  idxTwo="7"  coef="-1.9031"/><qTerm  idx="9"  idxOne="6"  idxTwo="15"  coef="-.3685"/><qTerm  idx="9"  idxOne="7"  idxTwo="8"  coef="-1.3759"/><qTerm  idx="9"  idxOne="7"  idxTwo="9"  coef=".7525"/><qTerm  idx="9"  idxOne="7"  idxTwo="11"  coef="-1.08"/><qTerm  idx="9"  idxOne="7"  idxTwo="12"  coef="1.2177"/><qTerm  idx="9"  idxOne="7"  idxTwo="15"  coef="-.2319"/><qTerm  idx="9"  idxOne="7"  idxTwo="17"  coef=".5363"/><qTerm  idx="9"  idxOne="8"  idxTwo="10"  coef="-9.82e-2"/><qTerm  idx="9"  idxOne="8"  idxTwo="12"  coef="1.3152"/><qTerm  idx="9"  idxOne="8"  idxTwo="14"  coef=".9316"/><qTerm  idx="9"  idxOne="8"  idxTwo="18"  coef="1.9254"/><qTerm  idx="9"  idxOne="9"  idxTwo="10"  coef="-1.827"/><qTerm  idx="9"  idxOne="9"  idxTwo="17"  coef=".9938"/><qTerm  idx="9"  idxOne="10"  idxTwo="11"  coef=".1175"/><qTerm  idx="9"  idxOne="10"  idxTwo="14"  coef=".9854"/><qTerm  idx="9"  idxOne="10"  idxTwo="16"  coef=".618"/><qTerm  idx="9"  idxOne="10"  idxTwo="17"  coef="-.818"/><qTerm  idx="9"  idxOne="11"  idxTwo="13"  coef=".4962"/><qTerm  idx="9"  idxOne="12"  idxTwo="14"  coef="-.6034"/><qTerm  idx="9"  idxOne="12"  idxTwo="15"  coef="-2.e-4"/><qTerm  idx="9"  idxOne="12"  idxTwo="17"  coef="1.2787"/><qTerm  idx="9"  idxOne="13"  idxTwo="15"  coef="-1.6192"/><qTerm  idx="9"  idxOne="14"  idxTwo="16"  coef="-.4719"/><qTerm  idx="9"  idxOne="14"  idxTwo="18"  coef="-.2353"/></quadraticCoefficients></instanceData></osil>
